46428 18398
56227 29600
5454 58686
137 61873
12554 4410
13935 54079
28879 26143
22703 60163
31950 15048
61677 44299
7218 853
17982 22934
12895 51137
10424 56926
27720 24529
33355 39719
46648 2135
31078 26537
22666 39285
8711 63787
45081 35049
16321 16528
57204 12783
48164 31485
33346 56875
26965 4298
14061 47301
34514 11717
26612 23909
9255 14436
20024 48524
24796 25923
12936 25433
50913 17338
16374 64586
4528 3619
3252 12906
37727 8413
20133 52870
58854 60392
63795 47325
62542 60830
4955 34492
48455 53986
42093 17397
61435 47568
41278 34503
57423 43561
58690 37981
63413 20397
28307 10791
54000 10108
27904 31431
63052 3011
62418 37170
26554 33429
6863 49654
25214 57518
3412 9695
42418 737
11930 18572
52368 10799
16702 26359
45156 32780
44622 24998
2414 37352
5307 18311
55058 41130
8269 19801
43487 9626
12455 23786
